40
    52    31    94    85    72     9    68    47    15    83    89    59    50    36    31    17    79     3    45    19    28    72    60    69    53    83    85    70    40    31     4    31    99    64    81    65    72    81    58    84
     9     1     9    10     6     3     6     7    10     6     5     8    10     4     2     2    10     9     9    10     5     6    10     3     7     1     3     2     6    10     9     2     3     9     4     5     5    10     4     8
  1349  2078  1523  2126  1871  1271  1006  1749  1928  1774  1537  1783  2157  1532  1854  1665  2563  1234  1640  1226  2350  2052  1793  1525  2415  2488  2060  1254  1641  1408  1302  1105  1150  1980  2200  1949  2375  2320   914  2119
